c instance by G2
c solution = 00011000001
c Known solution cost is 713 
p cnf 11 30
w 71 73 4 48 95 81 75 83 46 75 62
-5 -2 -11 0
6 -3 4 0
-7 8 5 0
-5 -3 2 0
4 9 8 0
-4 7 -6 0
-7 9 -8 0
5 -6 10 0
-10 -5 -4 0
-7 -1 -2 0
-1 -5 -11 0
-11 -10 -4 0
7 -8 2 0
-1 -6 -3 0
-11 -6 7 0
-5 10 11 0
-6 -3 4 0
6 -2 8 0
2 -9 7 0
-11 4 6 0
-7 1 -5 0
5 7 -4 0
6 -11 5 0
7 10 -3 0
8 -10 -4 0
10 -4 5 0
1 -8 6 0
-9 5 -7 0
-10 -4 8 0
-7 10 9 0
